(set-info :smt-lib-version 2.6)
(set-logic QF_NRA)
(set-info :status sat)
(declare-fun x_0 () Real)
(declare-fun x_1 () Real)
(declare-fun x_2 () Real)
(declare-fun x_3 () Real)
(assert (= (* x_0 x_0) 2))
(check-sat)
(exit)
